100
1000
200
200
200
200
200
199
199
198
198
197
197
196
195
195
195
194
194
193
193
192
192
192
192
191
191
190
190
190
190
188
188
188
187
187
186
186
185
184
183
182
181
181
181
180
178
178
178
177
177
176
176
174
173
172
171
171
171
168
168
167
165
164
163
162
162
162
161
161
161
160
160
160
159
159
158
158
158
157
157
157
156
156
155
155
155
155
155
154
154
154
153
153
153
151
151
151
151
151
150
150
